experiments/knapsack_bounded/knapsack_bounded_10_5.mps
NAME
ROWS
 N  OBJ
 L  c1
 L  c2
 L  c3
 L  c4
 L  c5
 L  c6
 L  c7
 L  c8
 L  c9
 L  c10
 L  c11
COLUMNS
    MARKER    'MARKER'                 'INTORG'
    x[1]      c1        742
    x[1]      c2        1
    x[1]      OBJ       -664
    x[2]      c1        747
    x[2]      c3        1
    x[2]      OBJ       -308
    x[3]      c1        946
    x[3]      c4        1
    x[3]      OBJ       -49
    x[4]      c1        94
    x[4]      c5        1
    x[4]      OBJ       -691
    x[5]      c1        128
    x[5]      c6        1
    x[5]      OBJ       -757
    x[6]      c1        173
    x[6]      c7        1
    x[6]      OBJ       -455
    x[7]      c1        914
    x[7]      c8        1
    x[7]      OBJ       -180
    x[8]      c1        84
    x[8]      c9        1
    x[8]      OBJ       -860
    x[9]      c1        960
    x[9]      c10       1
    x[9]      OBJ       -415
    x[10]     c1        944
    x[10]     c11       1
    x[10]     OBJ       -797
    MARKER    'MARKER'                 'INTEND'
RHS
    rhs       c1        2866
    rhs       c2        6
    rhs       c3        4
    rhs       c4        7
    rhs       c5        9
    rhs       c6        7
    rhs       c7        7
    rhs       c8        7
    rhs       c9        3
    rhs       c10       6
    rhs       c11       10
RANGES
BOUNDS
 LO bounds    x[1]      0
 PL bounds    x[1]
 LO bounds    x[2]      0
 PL bounds    x[2]
 LO bounds    x[3]      0
 PL bounds    x[3]
 LO bounds    x[4]      0
 PL bounds    x[4]
 LO bounds    x[5]      0
 PL bounds    x[5]
 LO bounds    x[6]      0
 PL bounds    x[6]
 LO bounds    x[7]      0
 PL bounds    x[7]
 LO bounds    x[8]      0
 PL bounds    x[8]
 LO bounds    x[9]      0
 PL bounds    x[9]
 LO bounds    x[10]     0
 PL bounds    x[10]
ENDATA
